(set-logic ALL)
(set-option :produce-models true)
(declare-sort BoundSet 0)
(declare-sort UnboundSet 0)
(set-option :finite-model-find true)
(declare-fun IsOlder (BoundSet) Bool)
(declare-fun IsCarrying (BoundSet) Bool)
(declare-fun IsOld (BoundSet) Bool)
(assert (not (=> (and (exists ((a BoundSet)) (exists ((b BoundSet)) (and (IsOlder b) (IsCarrying a)))) (and (forall ((e BoundSet)) (forall ((d BoundSet)) (=> (IsOlder d) (IsOld e)))) (forall ((f BoundSet)) (forall ((g BoundSet)) (=> (IsOld f) (IsOlder g)))))) (exists ((c BoundSet)) (exists ((a BoundSet)) (and (IsOld c) (IsCarrying a)))))))
(check-sat)
(get-model)